0 0 0 0
0 1 1 0
0 2 0 0
0 3 0 0
0 4 0 1
0 5 2 2
0 6 0 6
0 7 1 2
0 8 0 5
0 9 0 5
0 10 1 2
0 11 0 2
0 12 1 11
0 13 0 8
0 14 0 6
0 15 0 10
0 16 1 7
0 17 1 20
0 18 0 13
0 19 0 19
0 20 0 19
0 21 0 20
0 22 0 22
0 23 2 8
0 24 0 22
0 25 0 19
0 26 0 23
0 27 1 25
0 28 0 26
0 29 1 22
0 30 1 22
0 31 0 31
